
List of user-set options:

                                    Name   Value                used
                         derivative_test = first-order           yes
                        file_print_level = 5                     yes
                   hessian_approximation = limited-memory        yes
                                  hsllib = /home/ggs24/packages/ThirdParty-HSL/.libs/libcoinhsl.so  yes
                           linear_solver = ma97                  yes
                                max_iter = 1000                  yes
                             output_file = IPOPT.out             yes
                             print_level = 5                     yes
                      print_user_options = yes                   yes
                                      sb = yes                   yes
                                     tol = 1e-06                 yes
This is Ipopt version 3.14.7, running with linear solver ma97.

Starting derivative checker for first derivatives.

* jac_g [  641,    3] = -3.5387141684410650e-04 v  ~ -3.5364726980321814e-04  [ 6.338e-04]
* jac_g [    5,   41] = -5.9952043329758453e-15 v  ~ -2.0254422993630752e-08  [ 2.025e-04]
* jac_g [  501,   48] = -1.0214051826551441e-15 v  ~ -1.4017948520092533e-08  [ 1.402e-04]
* jac_g [  511,   48] =  1.1084466677857564e-13 v  ~  2.4671589395362859e-06  [ 2.467e-02]
* jac_g [  577,   48] =  1.3988810110276974e-15 v  ~ -5.2567306950347000e-08  [ 5.257e-04]
* jac_g [  626,   48] = -1.4210854715202005e-15 v  ~  4.2053845560277600e-08  [ 4.205e-04]
* jac_g [  641,   48] = -2.2694519874466579e-15 v  ~ -2.2428717632148053e-07  [ 2.243e-03]

Derivative checker detected 7 error(s).

Number of nonzeros in equality constraint Jacobian...:      392
Number of nonzeros in inequality constraint Jacobian.:    31066
Number of nonzeros in Lagrangian Hessian.............:        0

Total number of variables............................:       49
                     variables with only lower bounds:        1
                variables with lower and upper bounds:       48
                     variables with only upper bounds:        0
Total number of equality constraints.................:        8
Total number of inequality constraints...............:      634
        inequality constraints with only lower bounds:        0
   inequality constraints with lower and upper bounds:      634
        inequality constraints with only upper bounds:        0

iter    objective    inf_pr   inf_du lg(mu)  ||d||  lg(rg) alpha_du alpha_pr  ls
   0  1.0000000e+00 2.44e-15 7.38e-01   0.0 0.00e+00    -  0.00e+00 0.00e+00   0
   1  9.9997423e-01 8.88e-16 4.01e-01  -1.5 6.00e-02    -  9.38e-01 9.90e-01f  1
   2  9.9987120e-01 1.33e-15 4.62e-03  -6.5 6.11e-03    -  9.84e-01 9.90e-01h  1
   3  9.9949271e-01 1.78e-15 6.86e-01  -4.4 2.31e-02    -  9.91e-01 1.00e+00h  1
   4  9.9908695e-01 9.99e-16 5.56e-03  -5.2 2.67e-02    -  1.00e+00 1.00e+00h  1
   5  9.9867177e-01 8.88e-16 5.86e-03  -6.4 2.78e-02    -  1.00e+00 1.00e+00h  1
   6  9.9824391e-01 2.22e-16 5.97e-03  -8.0 2.86e-02    -  1.00e+00 1.00e+00h  1
   7  9.9780339e-01 1.33e-15 6.05e-03  -9.3 2.93e-02    -  1.00e+00 1.00e+00h  1
   8  9.9734992e-01 8.88e-16 6.14e-03 -10.7 3.01e-02    -  1.00e+00 1.00e+00h  1
   9  9.9688319e-01 1.78e-15 6.23e-03 -11.0 3.09e-02    -  1.00e+00 1.00e+00h  1
iter    objective    inf_pr   inf_du lg(mu)  ||d||  lg(rg) alpha_du alpha_pr  ls
  10  9.9640287e-01 1.78e-15 6.31e-03 -11.0 3.16e-02    -  1.00e+00 1.00e+00h  1
  11  9.9590866e-01 1.78e-15 6.40e-03 -11.0 3.24e-02    -  1.00e+00 1.00e+00h  1
  12  9.9540022e-01 1.22e-15 6.49e-03 -11.0 3.33e-02    -  1.00e+00 1.00e+00h  1
  13  9.9487725e-01 2.22e-16 6.58e-03 -11.0 3.41e-02    -  1.00e+00 1.00e+00h  1
  14  9.9433943e-01 1.11e-15 6.67e-03 -11.0 3.49e-02    -  1.00e+00 1.00e+00h  1
  15  9.9378643e-01 1.33e-15 6.76e-03 -11.0 3.58e-02    -  1.00e+00 1.00e+00h  1
  16  9.9321793e-01 1.22e-15 6.85e-03 -11.0 3.67e-02    -  1.00e+00 1.00e+00h  1
  17  9.9263363e-01 1.78e-15 6.98e-03 -11.0 3.76e-02    -  1.00e+00 1.00e+00h  1
  18  9.9203320e-01 1.89e-15 7.11e-03 -11.0 3.85e-02    -  1.00e+00 1.00e+00h  1
  19  9.9141633e-01 2.22e-15 7.24e-03 -11.0 3.94e-02    -  1.00e+00 1.00e+00h  1
iter    objective    inf_pr   inf_du lg(mu)  ||d||  lg(rg) alpha_du alpha_pr  ls
  20  9.9078271e-01 4.44e-16 7.38e-03 -11.0 4.03e-02    -  1.00e+00 1.00e+00h  1
  21  9.9013203e-01 5.55e-16 7.51e-03 -11.0 4.13e-02    -  1.00e+00 1.00e+00h  1
  22  9.8946400e-01 8.88e-16 7.64e-03 -11.0 4.22e-02    -  1.00e+00 1.00e+00h  1
  23  9.8877831e-01 1.11e-16 7.77e-03 -11.0 4.32e-02    -  1.00e+00 1.00e+00h  1
  24  9.8807468e-01 1.78e-15 7.91e-03 -11.0 4.42e-02    -  1.00e+00 1.00e+00h  1
  25  9.8735281e-01 3.33e-16 8.04e-03 -11.0 4.52e-02    -  1.00e+00 1.00e+00h  1
  26  9.8661243e-01 1.78e-15 8.18e-03 -11.0 4.62e-02    -  1.00e+00 1.00e+00h  1
  27  9.8585327e-01 1.11e-15 8.31e-03 -11.0 4.72e-02    -  1.00e+00 1.00e+00h  1
  28  9.8507505e-01 4.44e-16 8.45e-03 -11.0 4.83e-02    -  1.00e+00 1.00e+00h  1
  29  9.8495940e-01 1.55e-15 8.45e-02  -9.0 4.93e-02    -  1.00e+00 1.46e-01h  1
iter    objective    inf_pr   inf_du lg(mu)  ||d||  lg(rg) alpha_du alpha_pr  ls
  30  9.8416337e-01 2.00e-15 8.61e-03  -8.3 4.88e-02    -  1.00e+00 1.00e+00h  1
  31  9.8334819e-01 4.66e-08 8.74e-03  -9.3 4.99e-02    -  1.00e+00 1.00e+00h  1
  32  9.8327994e-01 2.22e-15 4.38e+00  -7.3 5.08e-02    -  1.00e+00 8.23e-02h  1
  33  9.8245020e-01 6.66e-16 8.88e-03  -6.8 5.01e-02    -  1.00e+00 1.00e+00h  1
  34  9.8160187e-01 4.44e-16 9.02e-03  -7.4 5.09e-02    -  1.00e+00 1.00e+00h  1
  35  9.8074978e-01 7.22e-16 2.73e-01  -5.9 5.04e-02    -  1.00e+00 9.98e-01h  1
  36  9.8060941e-01 6.89e-05 7.84e-02  -5.9 5.00e-02    -  1.00e+00 1.65e-01h  1
  37  9.8056327e-01 1.78e-15 1.18e+02  -5.4 9.36e-03    -  5.68e-01 1.00e+00h  1
  38  9.7826913e-01 3.30e-03 1.03e+02  -5.3 7.35e-01    -  1.13e-01 9.97e-02h  1
  39  9.6342301e-01 4.48e-01 1.36e+02  -5.2 1.01e+00    -  1.22e-01 4.22e-01h  1
iter    objective    inf_pr   inf_du lg(mu)  ||d||  lg(rg) alpha_du alpha_pr  ls
  40  9.6438138e-01 3.07e-01 1.08e+02  -4.7 5.87e-01    -  6.15e-01 6.52e-01h  1
  41  9.6694479e-01 1.27e-01 1.18e-03  -4.5 3.37e-01    -  1.00e+00 1.00e+00h  1
  42  9.6755111e-01 4.44e-02 8.72e-04  -5.0 2.14e-01    -  1.00e+00 1.00e+00h  1
  43  9.4434262e-01 1.69e+00 8.01e+00  -5.0 1.32e+00    -  2.89e-01 1.00e+00h  1
  44  9.5307256e-01 7.92e-01 1.36e+02  -5.3 1.09e+00    -  7.70e-01 1.00e+00h  1
  45  9.6511519e-01 1.34e-01 3.23e+02  -4.7 2.12e-01    -  7.82e-01 1.00e+00h  1
  46  9.6474844e-01 1.29e-01 1.94e-03  -4.8 2.53e-01    -  1.00e+00 1.00e+00h  1
  47  9.2066832e-01 3.19e+00 2.51e-01  -4.8 1.69e+00    -  7.18e-01 1.00e+00h  1
  48  9.4827247e-01 1.01e+00 3.83e+02  -5.0 1.29e+00    -  1.27e-01 9.98e-01h  1
  49  9.5547845e-01 6.34e-01 4.66e+02  -5.3 5.04e-01    -  5.13e-01 1.00e+00h  1
iter    objective    inf_pr   inf_du lg(mu)  ||d||  lg(rg) alpha_du alpha_pr  ls
  50  9.6175982e-01 2.04e-01 1.11e-03  -5.2 2.99e-01    -  1.00e+00 1.00e+00h  1
  51  9.6484479e-01 2.55e-02 4.54e-04  -5.6 9.10e-02    -  1.00e+00 1.00e+00h  1
  52  9.6506257e-01 1.91e-02 7.73e+02  -4.8 1.69e-01    -  4.71e-01 1.00e+00h  1
  53  9.6464301e-01 3.07e-02 5.85e+01  -5.1 2.10e-01    -  6.77e-01 1.00e+00h  1
  54  9.6416933e-01 4.52e-02 1.18e-03  -5.1 1.98e-01    -  1.00e+00 1.00e+00h  1
  55  9.6423851e-01 2.53e-02 3.97e-04  -5.5 1.37e-01    -  1.00e+00 1.00e+00h  1
  56  9.6406574e-01 2.48e-02 3.07e+00  -5.9 1.65e-01    -  9.83e-01 1.00e+00h  1
  57  9.6107407e-01 1.90e-01 1.30e-03  -5.6 5.66e-01    -  1.00e+00 1.00e+00h  1
  58  9.6036207e-01 2.16e-01 1.94e-03  -5.4 6.39e-01    -  1.00e+00 1.00e+00h  1
  59  9.5958422e-01 2.64e-01 1.69e-03  -5.7 4.27e-01    -  1.00e+00 1.00e+00h  1
iter    objective    inf_pr   inf_du lg(mu)  ||d||  lg(rg) alpha_du alpha_pr  ls
  60  9.6201391e-01 1.03e-01 2.04e+01  -5.5 2.34e-01    -  8.55e-01 1.00e+00h  1
  61  9.6359957e-01 1.61e-02 3.62e-04  -5.8 8.35e-02    -  1.00e+00 1.00e+00h  1
  62  9.6371313e-01 5.44e-03 1.16e-01  -6.3 1.37e-01    -  9.99e-01 1.00e+00h  1
  63  9.6306243e-01 3.95e-02 6.20e+01  -5.7 4.91e-01    -  1.00e+00 5.28e-01h  1
  64  9.6329162e-01 1.54e-02 3.32e-04  -6.1 1.91e-01    -  1.00e+00 1.00e+00h  1
  65  9.6320937e-01 2.08e-02 9.64e+00  -5.9 8.14e-02    -  8.38e-01 1.00e+00h  1
  66  9.6330984e-01 8.17e-03 1.68e-04  -6.3 1.72e-01    -  1.00e+00 1.00e+00h  1
  67  9.6341749e-01 5.90e-03 2.66e-04  -5.9 9.01e-02    -  1.00e+00 1.00e+00h  1
  68  9.6331614e-01 6.30e-03 1.42e-04  -6.2 1.45e-01    -  1.00e+00 1.00e+00h  1
  69  9.6311082e-01 1.87e-02 5.79e+00  -6.4 1.16e-01    -  6.17e-01 1.00e+00h  1
iter    objective    inf_pr   inf_du lg(mu)  ||d||  lg(rg) alpha_du alpha_pr  ls
  70  9.6317976e-01 1.05e-02 7.70e-05  -6.5 5.76e-02    -  1.00e+00 1.00e+00h  1
  71  9.6333776e-01 7.73e-04 1.77e+00  -7.0 6.43e-02    -  9.23e-01 1.00e+00h  1
  72  9.6327275e-01 4.28e-03 3.06e-04  -7.2 8.36e-02    -  1.00e+00 1.00e+00h  1
  73  9.6329137e-01 3.30e-03 7.85e-01  -6.8 5.99e-02    -  9.04e-01 1.00e+00h  1
  74  9.6331780e-01 1.25e-03 9.16e-05  -7.1 2.47e-02    -  1.00e+00 1.00e+00h  1
  75  9.6332781e-01 3.35e-04 2.36e-05  -7.4 2.16e-02    -  1.00e+00 1.00e+00h  1
  76  9.6333059e-01 1.33e-05 1.67e-05  -7.8 7.20e-03    -  1.00e+00 1.00e+00h  1
  77  9.6332882e-01 6.26e-05 3.25e-05  -8.1 6.72e-03    -  1.00e+00 1.00e+00h  1
  78  9.6332949e-01 2.01e-05 1.34e-05  -8.2 3.46e-03    -  1.00e+00 1.00e+00h  1
  79  9.6332873e-01 5.12e-05 2.17e-05  -8.5 6.65e-03    -  1.00e+00 1.00e+00h  1
iter    objective    inf_pr   inf_du lg(mu)  ||d||  lg(rg) alpha_du alpha_pr  ls
  80  9.6332888e-01 3.88e-05 1.94e-05  -8.7 4.80e-03    -  1.00e+00 1.00e+00h  1
  81  9.6332890e-01 3.64e-05 1.97e-05  -8.7 4.65e-03    -  1.00e+00 1.00e+00h  1
  82  9.6332936e-01 1.17e-05 2.85e-06  -8.5 3.16e-03    -  1.00e+00 1.00e+00h  1
  83  9.6332949e-01 6.88e-07 3.61e-06  -8.8 5.84e-04    -  1.00e+00 1.00e+00h  1
  84  9.6332948e-01 2.79e-07 1.39e-06  -9.0 4.54e-04    -  1.00e+00 1.00e+00h  1
  85  9.6332946e-01 7.28e-07 2.52e-06  -9.3 9.06e-04    -  1.00e+00 1.00e+00h  1
  86  9.6332919e-01 1.49e-05 8.03e-06  -9.8 4.59e-03    -  1.00e+00 1.00e+00h  1
  87  9.6332894e-01 3.69e-05 3.92e-02  -9.2 5.78e-03    -  2.37e-01 9.75e-01h  1
  88  9.6332867e-01 4.17e-05 2.28e-03  -9.6 7.50e-03    -  1.11e-01 9.53e-01h  1
  89  9.6332875e-01 3.88e-05 3.22e-02  -8.9 6.77e-03    -  6.31e-01 3.07e-01h  1
iter    objective    inf_pr   inf_du lg(mu)  ||d||  lg(rg) alpha_du alpha_pr  ls
  90  9.6332938e-01 4.92e-06 6.14e-03  -9.2 1.98e-03    -  6.71e-01 1.00e+00h  1
  91  9.6332945e-01 3.86e-07 3.27e-06  -9.7 4.50e-04    -  1.00e+00 1.00e+00h  1
  92  9.6332945e-01 1.33e-07 9.43e-07 -10.0 2.46e-04    -  1.00e+00 1.00e+00h  1

Number of Iterations....: 92

                                   (scaled)                 (unscaled)
Objective...............:   9.6332944847761137e-01    9.6332944847761137e-01
Dual infeasibility......:   9.4322492885781529e-07    9.4322492885781529e-07
Constraint violation....:   1.3270580367930052e-07    1.3270580367930052e-07
Variable bound violation:   0.0000000000000000e+00    0.0000000000000000e+00
Complementarity.........:   1.3322236857909972e-10    1.3322236857909972e-10
Overall NLP error.......:   9.4322492885781529e-07    9.4322492885781529e-07


Number of objective function evaluations             = 93
Number of objective gradient evaluations             = 93
Number of equality constraint evaluations            = 93
Number of inequality constraint evaluations          = 93
Number of equality constraint Jacobian evaluations   = 93
Number of inequality constraint Jacobian evaluations = 93
Number of Lagrangian Hessian evaluations             = 0
Total seconds in IPOPT                               = 15.403

EXIT: Optimal Solution Found.
